# Objective value = 2486.41000000002
I_0_0 1540
I_0_1 1.8880000000000027e+03
I_0_2 1.6470000000000016e+03
I_0_3 2.2869999999999950e+03
I_1_0 78
I_1_1 3.8999999999998181e+01
I_1_2 7.7999999999998124e+01
I_1_3 3.9000000000001819e+01
I_2_0 60
I_2_1 60
I_2_2 30
I_2_3 9.3969276804273250e-13
I_3_0 62
I_3_1 3.0999999999999286e+01
I_3_2 6.2000000000000696e+01
I_3_3 3.0999999999999073e+01
I_4_0 67
I_4_1 -7.7360340355880908e-13
I_4_2 66.9999999999992
I_4_3 0
I_5_0 166
I_5_1 83
I_5_2 1.6600000000000071e+02
I_5_3 8.2999999999998693e+01
I_6_0 39
I_6_1 0
I_6_2 39
I_6_3 0
I_7_0 89
I_7_1 8.9000000000001023e+01
I_7_2 89
I_7_3 -8.8817841970012523e-16
I_8_0 89
I_8_1 0
I_8_2 89
I_8_3 0
I_9_0 154
I_9_1 1.5399999999999952e+02
I_9_2 76.9999999999995
I_9_3 5.9632299098666408e-12
I_10_0 96
I_10_1 96
I_10_2 96
I_10_3 -7.1054273576010019e-15
q_1_0_0 -1.8160800437344212e-12
q_1_0_1 7.7999999999999986e+01
q_1_0_2 3.6883494846742846e-12
q_1_1_0 0
q_1_1_1 0
q_1_1_2 0
q_2_0_0 30
q_2_0_1 0
q_2_0_2 1.0436096431476471e-14
q_2_1_0 0
q_2_1_1 0
q_2_1_2 2.2204460492503131e-16
q_3_0_0 0
q_3_0_1 6.1999999999999972e+01
q_3_0_2 3.5527136788005009e-15
q_3_1_0 -7.1415096059013194e-13
q_3_1_1 1.4210854715202004e-12
q_3_1_2 -1.6252605204797126e-12
q_4_0_0 0
q_4_0_1 134
q_4_0_2 0
q_4_1_0 -7.7360340355880908e-13
q_4_1_1 0
q_4_1_2 7.9580786405131221e-13
q_5_0_0 0
q_5_0_1 7.6028072726330720e-13
q_5_0_2 -1.3038459201197838e-12
q_5_1_0 0
q_5_1_1 1.6600000000000003e+02
q_5_1_2 -7.6028072726330720e-13
q_6_0_0 0
q_6_0_1 0
q_6_0_2 0
q_6_1_0 0
q_6_1_1 78
q_6_1_2 0
q_7_0_0 89
q_7_0_1 8.8999999999998963e+01
q_7_0_2 0
q_7_1_0 1.0251521853632539e-12
q_7_1_1 0
q_7_1_2 3.9968028886505635e-15
q_8_0_0 0
q_8_0_1 0
q_8_0_2 0
q_8_1_0 0
q_8_1_1 178
q_8_1_2 0
q_9_0_0 7.6999999999999517e+01
q_9_0_1 0
q_9_0_2 5.2615689583035419e-12
q_9_1_0 0
q_9_1_1 0
q_9_1_2 7.4962258622690570e-13
q_10_0_0 96
q_10_0_1 96
q_10_0_2 0
q_10_1_0 0
q_10_1_1 0
q_10_1_2 -7.1054273576010019e-15
y_0_0_0 1
y_0_0_1 1
y_0_0_2 0
y_0_1_0 0
y_0_1_1 1
y_0_1_2 0
y_1_0_0 -4.6566154967549262e-14
y_1_0_1 1
y_1_0_2 4.7297918757615185e-14
y_1_1_0 0
y_1_1_1 0
y_1_1_2 0
y_2_0_0 1
y_2_0_1 0
y_2_0_2 0
y_2_1_0 0
y_2_1_1 0
y_2_1_2 5.5511151231257827e-17
y_3_0_0 0
y_3_0_1 1
y_3_0_2 0
y_3_1_0 -2.3037127760971998e-14
y_3_1_1 2.2926105458509435e-14
y_3_1_2 0
y_4_0_0 0
y_4_0_1 1
y_4_0_2 0
y_4_1_0 -1.1546319456101628e-14
y_4_1_1 0
y_4_1_2 0
y_5_0_0 0
y_5_0_1 0
y_5_0_2 0
y_5_1_0 0
y_5_1_1 1.0000000000000002e+00
y_5_1_2 0
y_6_0_0 0
y_6_0_1 0
y_6_0_2 0
y_6_1_0 0
y_6_1_1 1
y_6_1_2 0
y_7_0_0 1
y_7_0_1 1
y_7_0_2 0
y_7_1_0 1.1518563880485999e-14
y_7_1_1 0
y_7_1_2 -6.9388939039072284e-18
y_8_0_0 0
y_8_0_1 0
y_8_0_2 0
y_8_1_0 0
y_8_1_1 1
y_8_1_2 0
y_9_0_0 9.9999999999999378e-01
y_9_0_1 0
y_9_0_2 2.25583440816024e-14
y_9_1_0 0
y_9_1_1 0
y_9_1_2 0
y_10_0_0 1
y_10_0_1 1.0000000000000002e+00
y_10_0_2 0
y_10_1_0 0
y_10_1_1 0
y_10_1_2 0
x_0_1_0_0 0
x_0_1_0_1 -4.3798298321462426e-14
x_0_1_0_2 0
x_0_1_1_0 0
x_0_1_1_1 0
x_0_1_1_2 0
x_0_2_0_0 9.9999999999992362e-01
x_0_2_0_1 0
x_0_2_0_2 3.1308289294429414e-14
x_0_2_1_0 0
x_0_2_1_1 0
x_0_2_1_2 1.1102230246251565e-16
x_0_3_0_0 0
x_0_3_0_1 7.5495165674510645e-15
x_0_3_0_2 1.5681900222830336e-14
x_0_3_1_0 0
x_0_3_1_1 0
x_0_3_1_2 -2.7755575615628914e-17
x_0_4_0_0 0
x_0_4_0_1 1.0000000000000437e+00
x_0_4_0_2 0
x_0_4_1_0 0
x_0_4_1_1 0
x_0_4_1_2 0
x_0_5_0_0 1.9984014443252818e-15
x_0_5_0_1 0
x_0_5_0_2 -7.7715611723760958e-14
x_0_5_1_0 0
x_0_5_1_1 9.9999999999995448e-01
x_0_5_1_2 0
x_0_6_0_0 0
x_0_6_0_1 0
x_0_6_0_2 0
x_0_6_1_0 0
x_0_6_1_1 -2.7755575615628914e-17
x_0_6_1_2 0
x_0_7_0_0 0
x_0_7_0_1 1
x_0_7_0_2 0
x_0_7_1_0 0
x_0_7_1_1 0
x_0_7_1_2 0
x_0_8_0_0 4.4464432136237519e-14
x_0_8_0_1 0
x_0_8_0_2 0
x_0_8_1_0 0
x_0_8_1_1 1.0000000000000002e+00
x_0_8_1_2 0
x_0_9_0_0 1.0000000000000269e+00
x_0_9_0_1 0
x_0_9_0_2 6.7765237865557992e-14
x_0_9_1_0 0
x_0_9_1_1 0
x_0_9_1_2 -2.7755575615628914e-17
x_0_10_0_0 0
x_0_10_0_1 -7.5495165674510645e-15
x_0_10_0_2 0
x_0_10_1_0 0
x_0_10_1_1 0
x_0_10_1_2 -1.8735013540549517e-16
x_1_2_0_0 0
x_1_2_0_1 0
x_1_2_0_2 0
x_1_2_1_0 0
x_1_2_1_1 0
x_1_2_1_2 0
x_1_3_0_0 0
x_1_3_0_1 1.0000000000000362e+00
x_1_3_0_2 1.5709655798445965e-14
x_1_3_1_0 0
x_1_3_1_1 0
x_1_3_1_2 0
x_1_4_0_0 0
x_1_4_0_1 1
x_1_4_0_2 0
x_1_4_1_0 0
x_1_4_1_1 0
x_1_4_1_2 0
x_1_5_0_0 -2.2482016248659420e-15
x_1_5_0_1 -8.3266726846886741e-17
x_1_5_0_2 7.7715611723760958e-14
x_1_5_1_0 0
x_1_5_1_1 0
x_1_5_1_2 0
x_1_6_0_0 0
x_1_6_0_1 0
x_1_6_0_2 0
x_1_6_1_0 0
x_1_6_1_1 0
x_1_6_1_2 0
x_1_7_0_0 0
x_1_7_0_1 0
x_1_7_0_2 0
x_1_7_1_0 0
x_1_7_1_1 0
x_1_7_1_2 0
x_1_8_0_0 0
x_1_8_0_1 0
x_1_8_0_2 0
x_1_8_1_0 0
x_1_8_1_1 0
x_1_8_1_2 0
x_1_9_0_0 0
x_1_9_0_1 0
x_1_9_0_2 0
x_1_9_1_0 0
x_1_9_1_1 0
x_1_9_1_2 0
x_1_10_0_0 -2.2482016248659420e-15
x_1_10_0_1 0
x_1_10_0_2 0
x_1_10_1_0 0
x_1_10_1_1 0
x_1_10_1_2 0
x_2_3_0_0 0
x_2_3_0_1 0
x_2_3_0_2 0
x_2_3_1_0 0
x_2_3_1_1 0
x_2_3_1_2 0
x_2_4_0_0 0
x_2_4_0_1 0
x_2_4_0_2 0
x_2_4_1_0 0
x_2_4_1_1 0
x_2_4_1_2 0
x_2_5_0_0 0
x_2_5_0_1 0
x_2_5_0_2 0
x_2_5_1_0 0
x_2_5_1_1 0
x_2_5_1_2 0
x_2_6_0_0 0
x_2_6_0_1 0
x_2_6_0_2 0
x_2_6_1_0 0
x_2_6_1_1 0
x_2_6_1_2 0
x_2_7_0_0 -2.7866597918091429e-14
x_2_7_0_1 0
x_2_7_0_2 0
x_2_7_1_0 0
x_2_7_1_1 0
x_2_7_1_2 0
x_2_8_0_0 0
x_2_8_0_1 0
x_2_8_0_2 0
x_2_8_1_0 0
x_2_8_1_1 0
x_2_8_1_2 0
x_2_9_0_0 0
x_2_9_0_1 0
x_2_9_0_2 0
x_2_9_1_0 0
x_2_9_1_1 0
x_2_9_1_2 0
x_2_10_0_0 1.0000000000001039e+00
x_2_10_0_1 0
x_2_10_0_2 0
x_2_10_1_0 0
x_2_10_1_1 0
x_2_10_1_2 0
x_3_4_0_0 0
x_3_4_0_1 0
x_3_4_0_2 0
x_3_4_1_0 -2.3092638912203256e-14
x_3_4_1_1 0
x_3_4_1_2 0
x_3_5_0_0 0
x_3_5_0_1 0
x_3_5_0_2 0
x_3_5_1_0 0
x_3_5_1_1 -3.3306690738754696e-16
x_3_5_1_2 0
x_3_6_0_0 0
x_3_6_0_1 0
x_3_6_0_2 0
x_3_6_1_0 0
x_3_6_1_1 0
x_3_6_1_2 0
x_3_7_0_0 0
x_3_7_0_1 0
x_3_7_0_2 0
x_3_7_1_0 0
x_3_7_1_1 0
x_3_7_1_2 0
x_3_8_0_0 0
x_3_8_0_1 0
x_3_8_0_2 0
x_3_8_1_0 0
x_3_8_1_1 0
x_3_8_1_2 0
x_3_9_0_0 0
x_3_9_0_1 0
x_3_9_0_2 0
x_3_9_1_0 0
x_3_9_1_1 0
x_3_9_1_2 0
x_3_10_0_0 0
x_3_10_0_1 1.0000000000000075e+00
x_3_10_0_2 0
x_3_10_1_0 -2.3037127760971998e-14
x_3_10_1_1 0
x_3_10_1_2 0
x_4_5_0_0 0
x_4_5_0_1 8.3266726846886741e-17
x_4_5_0_2 0
x_4_5_1_0 0
x_4_5_1_1 0
x_4_5_1_2 0
x_4_6_0_0 0
x_4_6_0_1 0
x_4_6_0_2 0
x_4_6_1_0 0
x_4_6_1_1 0
x_4_6_1_2 0
x_4_7_0_0 0
x_4_7_0_1 0
x_4_7_0_2 0
x_4_7_1_0 0
x_4_7_1_1 0
x_4_7_1_2 0
x_4_8_0_0 0
x_4_8_0_1 0
x_4_8_0_2 0
x_4_8_1_0 0
x_4_8_1_1 0
x_4_8_1_2 0
x_4_9_0_0 0
x_4_9_0_1 0
x_4_9_0_2 0
x_4_9_1_0 0
x_4_9_1_1 0
x_4_9_1_2 0
x_4_10_0_0 0
x_4_10_0_1 0
x_4_10_0_2 0
x_4_10_1_0 0
x_4_10_1_1 0
x_4_10_1_2 0
x_5_6_0_0 0
x_5_6_0_1 0
x_5_6_0_2 0
x_5_6_1_0 0
x_5_6_1_1 1.0000000000000002e+00
x_5_6_1_2 0
x_5_7_0_0 0
x_5_7_0_1 0
x_5_7_0_2 0
x_5_7_1_0 0
x_5_7_1_1 0
x_5_7_1_2 0
x_5_8_0_0 0
x_5_8_0_1 0
x_5_8_0_2 0
x_5_8_1_0 0
x_5_8_1_1 0
x_5_8_1_2 0
x_5_9_0_0 0
x_5_9_0_1 0
x_5_9_0_2 0
x_5_9_1_0 0
x_5_9_1_1 0
x_5_9_1_2 0
x_5_10_0_0 0
x_5_10_0_1 0
x_5_10_0_2 0
x_5_10_1_0 0
x_5_10_1_1 0
x_5_10_1_2 0
x_6_7_0_0 0
x_6_7_0_1 0
x_6_7_0_2 0
x_6_7_1_0 0
x_6_7_1_1 0
x_6_7_1_2 0
x_6_8_0_0 0
x_6_8_0_1 0
x_6_8_0_2 0
x_6_8_1_0 0
x_6_8_1_1 9.9999999999999978e-01
x_6_8_1_2 0
x_6_9_0_0 0
x_6_9_0_1 0
x_6_9_0_2 0
x_6_9_1_0 0
x_6_9_1_1 0
x_6_9_1_2 0
x_6_10_0_0 0
x_6_10_0_1 0
x_6_10_0_2 0
x_6_10_1_0 0
x_6_10_1_1 0
x_6_10_1_2 0
x_7_8_0_0 0
x_7_8_0_1 0
x_7_8_0_2 0
x_7_8_1_0 0
x_7_8_1_1 0
x_7_8_1_2 0
x_7_9_0_0 1
x_7_9_0_1 0
x_7_9_0_2 0
x_7_9_1_0 0
x_7_9_1_1 0
x_7_9_1_2 -2.7755575615628914e-17
x_7_10_0_0 1.0000000000000278e+00
x_7_10_0_1 1
x_7_10_0_2 0
x_7_10_1_0 2.3037127760971998e-14
x_7_10_1_1 0
x_7_10_1_2 0
x_8_9_0_0 -4.51166881632048e-14
x_8_9_0_1 0
x_8_9_0_2 0
x_8_9_1_0 0
x_8_9_1_1 0
x_8_9_1_2 0
x_8_10_0_0 0
x_8_10_0_1 0
x_8_10_0_2 0
x_8_10_1_0 0
x_8_10_1_1 0
x_8_10_1_2 0
x_9_10_0_0 -3.7525538232330291e-14
x_9_10_0_1 0
x_9_10_0_2 0
x_9_10_1_0 0
x_9_10_1_1 0
x_9_10_1_2 3.4694469519536142e-17
